networks/zoo_29_145/zoo_29_145-lower.txt
Number of groups: 12
Flow 1: {1 4 0} {4 3 0} {3 2 0} {2 17 0} 
Flow 2: {3 18 0} 
Flow 3: {1 14 0} {14 5 0} {5 20 0} 
Flow 4: {5 6 0} {6 21 0} 
Flow 5: {14 13 0} {13 12 0} {12 8 0} {8 7 0} {7 22 0} 
Flow 6: {8 23 0} 
Flow 7: {6 9 0} {9 24 0} 
Flow 8: {12 11 0} {11 26 0} 
Flow 9: {12 27 0} 
Flow 10: {13 28 0} 
Flow 11: {14 29 0} 
Flow 12: {4 1 0} {1 16 0} 
Flow 12: {2 3 0} {3 4 0} Flow 14: {2 6 0} {6 5 0} Flow 16: {9 8 0} Flow 19: {9 10 0} {10 11 0} Flow 20: {8 12 0} Flow 21: {5 14 0} Flow 37: {14 1 0} Flow 38: {6 2 0} Flow 59: {7 8 0} {12 13 0} {13 14 0} Flow 60: {8 9 0} {9 6 0} Flow 92: {10 9 0} Flow 101: {11 12 0} Flow 105: {11 10 0} Time taken running everything: 1 seconds
