networks/zoo_29_145/zoo_29_145-lower.sol
<?xml version = "1.0" encoding="UTF-8" standalone="yes"?>
<CPLEXSolution version="1.2">
 <header
   problemName="networks/zoo_29_145/zoo_29_145-lower.lp"
   solutionName="incumbent"
   solutionIndex="-1"
   objectiveValue="12"
   solutionTypeValue="3"
   solutionTypeString="primal"
   solutionStatusValue="101"
   solutionStatusString="integer optimal solution"
   solutionMethodString="mip"
   primalFeasible="1"
   dualFeasible="1"
   MIPNodes="0"
   MIPIterations="0"
   writeLevel="3"/>
 <quality
   epInt="1.0000000000000001e-05"
   epRHS="9.9999999999999995e-07"
   maxIntInfeas="0"
   maxPrimalInfeas="0"
   maxX="1"
   maxSlack="1"/>
 <variables>
  <variable name="Y(1,2)" index="1" value="1"/>
  <variable name="Y(2,3)" index="28" value="1"/>
  <variable name="Y(3,5)" index="56" value="1"/>
  <variable name="Y(4,6)" index="83" value="1"/>
  <variable name="Y(5,7)" index="110" value="1"/>
  <variable name="Y(6,8)" index="137" value="1"/>
  <variable name="Y(7,9)" index="164" value="1"/>
  <variable name="Y(8,11)" index="192" value="1"/>
  <variable name="Y(9,12)" index="219" value="1"/>
  <variable name="Y(10,13)" index="246" value="1"/>
  <variable name="Y(11,14)" index="273" value="1"/>
  <variable name="Y(12,1)" index="286" value="1"/>
  <variable name="X(1,4,1)" index="3770" value="1"/>
  <variable name="X(1,14,3)" index="3917" value="1"/>
  <variable name="X(1,16,12)" index="4071" value="1"/>
  <variable name="X(2,3,12)" index="4216" value="1"/>
  <variable name="X(2,6,14)" index="4363" value="1"/>
  <variable name="X(2,17,1)" index="4495" value="1"/>
  <variable name="X(3,2,1)" index="4640" value="1"/>
  <variable name="X(3,4,12)" index="4796" value="1"/>
  <variable name="X(3,18,2)" index="4931" value="1"/>
  <variable name="X(4,1,12)" index="5086" value="1"/>
  <variable name="X(4,3,1)" index="5220" value="1"/>
  <variable name="X(5,6,4)" index="5368" value="1"/>
  <variable name="X(5,14,21)" index="5530" value="1"/>
  <variable name="X(5,20,3)" index="5657" value="1"/>
  <variable name="X(6,2,38)" index="5837" value="1"/>
  <variable name="X(6,5,14)" index="5958" value="1"/>
  <variable name="X(6,9,7)" index="6096" value="1"/>
  <variable name="X(6,21,4)" index="6238" value="1"/>
  <variable name="X(7,8,59)" index="6438" value="1"/>
  <variable name="X(7,22,5)" index="6529" value="1"/>
  <variable name="X(8,7,5)" index="6674" value="1"/>
  <variable name="X(8,9,60)" index="6874" value="1"/>
  <variable name="X(8,12,20)" index="6979" value="1"/>
  <variable name="X(8,23,6)" index="7110" value="1"/>
  <variable name="X(9,6,60)" index="7309" value="1"/>
  <variable name="X(9,8,16)" index="7410" value="1"/>
  <variable name="X(9,10,19)" index="7558" value="1"/>
  <variable name="X(9,24,7)" index="7691" value="1"/>
  <variable name="X(10,9,92)" index="7921" value="1"/>
  <variable name="X(10,11,19)" index="7993" value="1"/>
  <variable name="X(11,10,105)" index="8224" value="1"/>
  <variable name="X(11,12,101)" index="8365" value="1"/>
  <variable name="X(11,26,8)" index="8417" value="1"/>
  <variable name="X(12,8,5)" index="8559" value="1"/>
  <variable name="X(12,11,8)" index="8707" value="1"/>
  <variable name="X(12,13,59)" index="8903" value="1"/>
  <variable name="X(12,27,9)" index="8998" value="1"/>
  <variable name="X(13,12,5)" index="9139" value="1"/>
  <variable name="X(13,14,59)" index="9338" value="1"/>
  <variable name="X(13,28,10)" index="9434" value="1"/>
  <variable name="X(14,1,37)" index="9606" value="1"/>
  <variable name="X(14,5,3)" index="9717" value="1"/>
  <variable name="X(14,13,5)" index="9864" value="1"/>
  <variable name="X(14,29,11)" index="10015" value="1"/>
 </variables>
</CPLEXSolution>
